(set-info :status unsat)
(declare-datatypes ((T 0)) ((
  (f0)
  (f1 (proj0f1 T))
  (f2 (proj0f2 T) (proj1f2 T) (proj2f2 T) (proj3f2 T))
  (f3 (proj0f3 T) (proj1f3 T) (proj2f3 T) (proj3f3 T)))))
(assert (exists ((y3276 T) (y3274 T) (y3275 T) (y3273 T)) 
    (and (= y3273 (f3 y3274 (f2 (f3 PLACEHOLDER PLACEHOLDER PLACEHOLDER PLACEHOLDER) (f3 PLACEHOLDER PLACEHOLDER PLACEHOLDER PLACEHOLDER) PLACEHOLDER PLACEHOLDER) (f2 (f3 (f1 PLACEHOLDER) PLACEHOLDER PLACEHOLDER (f3 PLACEHOLDER PLACEHOLDER PLACEHOLDER PLACEHOLDER)) PLACEHOLDER (f3 PLACEHOLDER PLACEHOLDER PLACEHOLDER PLACEHOLDER) PLACEHOLDER) (f1 (f1 (f3 PLACEHOLDER PLACEHOLDER PLACEHOLDER PLACEHOLDER))))) (= y3274 (f1 y3275)) (= y3275 (f2 (f2 y3273 PLACEHOLDER PLACEHOLDER PLACEHOLDER) PLACEHOLDER y3276 (f1 PLACEHOLDER))) (= y3276 (f3 y3273 PLACEHOLDER PLACEHOLDER PLACEHOLDER)))))
(check-sat)
